50, 1312
17, 12
34, 24
68, 48
51, 36
31, 26
62, 52
46, 41
92, 82
184, 164
92, 82
54, 49
54, 49
12, 7
24, 14
48, 28
36, 21
55, 50
55, 50
54, 49
108, 98
216, 196
162, 147
47, 42
94, 84
41, 36
82, 72
164, 144
14, 9
28, 18
56, 36
28, 18
32, 27
64, 54
128, 108
32, 27
34, 29
34, 29
42, 37
84, 74
126, 111
6, 1
12, 2
17, 12
17, 12
9, 4
36, 31
36, 31
41, 36
82, 72
164, 144
